;symbolic execution tree
(push)
(assert (le x0 com.lowagie.text.pdf.PdfObject))
(check-sat)
(push)
(assert (le x3 java.lang.String))
(check-sat)
(pop)
(push)
(assert (not (le x3 java.lang.String)))
(check-sat)
(push)
(assert (le x5 java.lang.reflect.Field))
(check-sat)
(pop)
(push)
(assert (not (le x5 java.lang.reflect.Field)))
(check-sat)
(pop)
(push)
(assert (le x5 com.lowagie.text.pdf.ByteBuffer))
(check-sat)
(pop)
(push)
(assert (not (le x5 com.lowagie.text.pdf.ByteBuffer)))
(check-sat)
(pop)
(pop)
(push)
(assert (le x4 com.lowagie.text.pdf.ByteBuffer))
(check-sat)
(pop)
(push)
(assert (not (le x4 com.lowagie.text.pdf.ByteBuffer)))
(check-sat)
(pop)
(push)
(assert (le x4 java.lang.Package))
(check-sat)
(push)
(assert (le x1 com.lowagie.text.pdf.ByteBuffer))
(check-sat)
(push)
(assert (le x4 java.lang.Package))
(check-sat)
(push)
(assert (le x6 com.lowagie.text.pdf.PdfObject))
(check-sat)
(pop)
(push)
(assert (not (le x6 com.lowagie.text.pdf.PdfObject)))
(check-sat)
(pop)
(pop)
(push)
(assert (not (le x4 java.lang.Package)))
(check-sat)
(pop)
(pop)
(push)
(assert (not (le x1 com.lowagie.text.pdf.ByteBuffer)))
(check-sat)
(pop)
(push)
(assert (le x6 java.lang.String))
(check-sat)
(pop)
(push)
(assert (not (le x6 java.lang.String)))
(check-sat)
(push)
(assert (le x1 com.lowagie.text.pdf.ByteBuffer))
(check-sat)
(pop)
(push)
(assert (not (le x1 com.lowagie.text.pdf.ByteBuffer)))
(check-sat)
(pop)
(push)
(assert (le x0 com.lowagie.text.pdf.PdfObject))
(check-sat)
(push)
(assert (le x2 com.lowagie.text.pdf.PdfObject))
(check-sat)
(pop)
(push)
(assert (not (le x2 com.lowagie.text.pdf.PdfObject)))
(check-sat)
(pop)
(pop)
(push)
(assert (not (le x0 com.lowagie.text.pdf.PdfObject)))
(check-sat)
(pop)
(pop)
(pop)
(push)
(assert (not (le x4 java.lang.Package)))
(check-sat)
(pop)
(push)
(assert (le x6 com.lowagie.text.pdf.ByteBuffer))
(check-sat)
(push)
(assert (le x1 com.lowagie.text.pdf.PdfObject))
(check-sat)
(push)
(assert (le x5 java.lang.StringBuffer))
(check-sat)
(pop)
(push)
(assert (not (le x5 java.lang.StringBuffer)))
(check-sat)
(pop)
(pop)
(push)
(assert (not (le x1 com.lowagie.text.pdf.PdfObject)))
(check-sat)
(pop)
(pop)
(push)
(assert (not (le x6 com.lowagie.text.pdf.ByteBuffer)))
(check-sat)
(push)
(assert (le x0 com.lowagie.text.pdf.PdfObject))
(check-sat)
(push)
(assert (le x1 com.lowagie.text.pdf.PdfObject))
(check-sat)
(pop)
(push)
(assert (not (le x1 com.lowagie.text.pdf.PdfObject)))
(check-sat)
(pop)
(pop)
(push)
(assert (not (le x0 com.lowagie.text.pdf.PdfObject)))
(check-sat)
(pop)
(push)
(assert (le x5 com.lowagie.text.pdf.PdfName))
(check-sat)
(pop)
(push)
(assert (not (le x5 com.lowagie.text.pdf.PdfName)))
(check-sat)
(push)
(assert (le x6 com.lowagie.text.pdf.ByteBuffer))
(check-sat)
(pop)
(push)
(assert (not (le x6 com.lowagie.text.pdf.ByteBuffer)))
(check-sat)
(push)
(assert (le x1 com.lowagie.text.pdf.PdfObject))
(check-sat)
(pop)
(push)
(assert (not (le x1 com.lowagie.text.pdf.PdfObject)))
(check-sat)
(pop)
(push)
(assert (le x7 java.lang.StringBuffer))
(check-sat)
(pop)
(push)
(assert (not (le x7 java.lang.StringBuffer)))
(check-sat)
(pop)
(pop)
(pop)
(push)
(assert (le x5 java.lang.StringBuffer))
(check-sat)
(pop)
(push)
(assert (not (le x5 java.lang.StringBuffer)))
(check-sat)
(pop)
(pop)
(push)
(assert (le x7 com.lowagie.text.pdf.PdfObject))
(check-sat)
(push)
(assert (le x7 com.lowagie.text.pdf.PdfObject))
(check-sat)
(pop)
(push)
(assert (not (le x7 com.lowagie.text.pdf.PdfObject)))
(check-sat)
(pop)
(push)
(assert (le x0 com.lowagie.text.pdf.PdfObject))
(check-sat)
(pop)
(push)
(assert (not (le x0 com.lowagie.text.pdf.PdfObject)))
(check-sat)
(pop)
(push)
(assert (le x7 com.lowagie.text.pdf.PdfObject))
(check-sat)
(pop)
(push)
(assert (not (le x7 com.lowagie.text.pdf.PdfObject)))
(check-sat)
(pop)
(push)
(assert (le x2 java.lang.StringBuffer))
(check-sat)
(pop)
(push)
(assert (not (le x2 java.lang.StringBuffer)))
(check-sat)
(pop)
(push)
(assert (not (le x4 java.util.ArrayList)))
(check-sat)
(pop)
(push)
(assert (le x4 java.util.ArrayList))
(check-sat)
(push)
(assert (le x1 java.lang.StringBuffer))
(check-sat)
(pop)
(push)
(assert (not (le x1 java.lang.StringBuffer)))
(check-sat)
(pop)
(push)
(assert (le x3 java.lang.Integer))
(check-sat)
(pop)
(push)
(assert (not (le x3 java.lang.Integer)))
(check-sat)
(pop)
(push)
(assert (le x7 com.lowagie.text.pdf.PdfObject))
(check-sat)
(pop)
(push)
(assert (not (le x7 com.lowagie.text.pdf.PdfObject)))
(check-sat)
(pop)
(pop)
(push)
(assert (le x1 java.lang.String))
(check-sat)
(push)
(assert (le x0 com.lowagie.text.pdf.PdfObject))
(check-sat)
(pop)
(push)
(assert (not (le x0 com.lowagie.text.pdf.PdfObject)))
(check-sat)
(pop)
(pop)
(push)
(assert (not (le x1 java.lang.String)))
(check-sat)
(pop)
(pop)
(push)
(assert (not (le x7 com.lowagie.text.pdf.PdfObject)))
(check-sat)
(push)
(assert (le x3 java.lang.StringBuffer))
(check-sat)
(pop)
(push)
(assert (not (le x3 java.lang.StringBuffer)))
(check-sat)
(push)
(assert (le x7 com.lowagie.text.pdf.PdfObject))
(check-sat)
(pop)
(push)
(assert (not (le x7 com.lowagie.text.pdf.PdfObject)))
(check-sat)
(pop)
(push)
(assert (le x3 java.lang.StringBuffer))
(check-sat)
(pop)
(push)
(assert (not (le x3 java.lang.StringBuffer)))
(check-sat)
(pop)
(pop)
(pop)
(push)
(assert (le x5 java.lang.StringBuffer))
(check-sat)
(push)
(assert (le x3 java.lang.StringBuffer))
(check-sat)
(pop)
(push)
(assert (not (le x3 java.lang.StringBuffer)))
(check-sat)
(pop)
(pop)
(push)
(assert (not (le x5 java.lang.StringBuffer)))
(check-sat)
(push)
(assert (le x6 java.lang.StringBuffer))
(check-sat)
(push)
(assert (le x1 com.lowagie.text.pdf.PdfObject))
(check-sat)
(pop)
(push)
(assert (not (le x1 com.lowagie.text.pdf.PdfObject)))
(check-sat)
(pop)
(push)
(assert (le x3 java.lang.StringBuffer))
(check-sat)
(pop)
(push)
(assert (not (le x3 java.lang.StringBuffer)))
(check-sat)
(pop)
(push)
(assert (le x4 com.lowagie.text.pdf.PdfObject))
(check-sat)
(pop)
(push)
(assert (not (le x4 com.lowagie.text.pdf.PdfObject)))
(check-sat)
(pop)
(push)
(assert (le x3 java.lang.String))
(check-sat)
(pop)
(push)
(assert (not (le x3 java.lang.String)))
(check-sat)
(pop)
(pop)
(push)
(assert (not (le x6 java.lang.StringBuffer)))
(check-sat)
(pop)
(push)
(assert (le x3 java.lang.String))
(check-sat)
(pop)
(push)
(assert (not (le x3 java.lang.String)))
(check-sat)
(pop)
(push)
(assert (le x2 java.lang.StringBuffer))
(check-sat)
(pop)
(push)
(assert (not (le x2 java.lang.StringBuffer)))
(check-sat)
(pop)
(push)
(assert (le x6 java.security.MessageDigest))
(check-sat)
(pop)
(push)
(assert (not (le x6 java.security.MessageDigest)))
(check-sat)
(push)
(assert (le x5 java.lang.StringBuffer))
(check-sat)
(pop)
(push)
(assert (not (le x5 java.lang.StringBuffer)))
(check-sat)
(push)
(assert (le x6 java.security.MessageDigest))
(check-sat)
(pop)
(push)
(assert (not (le x6 java.security.MessageDigest)))
(check-sat)
(pop)
(pop)
(push)
(assert (le x1 java.lang.StringBuffer))
(check-sat)
(push)
(assert (le x5 java.lang.StringBuffer))
(check-sat)
(pop)
(push)
(assert (not (le x5 java.lang.StringBuffer)))
(check-sat)
(pop)
(pop)
(push)
(assert (not (le x1 java.lang.StringBuffer)))
(check-sat)
(push)
(assert (le x3 java.lang.StringBuffer))
(check-sat)
(pop)
(push)
(assert (not (le x3 java.lang.StringBuffer)))
(check-sat)
(pop)
(pop)
(push)
(assert (le x7 java.lang.StringBuffer))
(check-sat)
(pop)
(push)
(assert (not (le x7 java.lang.StringBuffer)))
(check-sat)
(push)
(assert (le x6 java.security.MessageDigest))
(check-sat)
(pop)
(push)
(assert (not (le x6 java.security.MessageDigest)))
(check-sat)
(pop)
(pop)
(push)
(assert (le x1 java.lang.Integer))
(check-sat)
(pop)
(push)
(assert (not (le x1 java.lang.Integer)))
(check-sat)
(pop)
(push)
(assert (le x2 java.lang.Integer))
(check-sat)
(pop)
(push)
(assert (not (le x2 java.lang.Integer)))
(check-sat)
(pop)
(pop)
(pop)
(push)
(assert (le x4 com.lowagie.text.pdf.PdfObject))
(check-sat)
(pop)
(push)
(assert (not (le x4 com.lowagie.text.pdf.PdfObject)))
(check-sat)
(push)
(assert (le x0 com.lowagie.text.pdf.PdfObject))
(check-sat)
(pop)
(push)
(assert (not (le x0 com.lowagie.text.pdf.PdfObject)))
(check-sat)
(pop)
(push)
(assert (le x3 java.lang.StringBuffer))
(check-sat)
(pop)
(push)
(assert (not (le x3 java.lang.StringBuffer)))
(check-sat)
(pop)
(push)
(assert (le x1 java.lang.StringBuffer))
(check-sat)
(push)
(assert (le x6 java.lang.StringBuffer))
(check-sat)
(pop)
(push)
(assert (not (le x6 java.lang.StringBuffer)))
(check-sat)
(pop)
(pop)
(push)
(assert (not (le x1 java.lang.StringBuffer)))
(check-sat)
(pop)
(push)
(assert (le x2 org.dom4j.Element))
(check-sat)
(pop)
(push)
(assert (not (le x2 org.dom4j.Element)))
(check-sat)
(pop)
(push)
(assert (le x6 com.lowagie.text.pdf.PdfObject))
(check-sat)
(pop)
(push)
(assert (not (le x6 com.lowagie.text.pdf.PdfObject)))
(check-sat)
(pop)
(pop)
(push)
(assert (le x1 com.lowagie.text.pdf.ByteBuffer))
(check-sat)
(push)
(assert (le x6 com.lowagie.text.pdf.ByteBuffer))
(check-sat)
(push)
(assert (le x1 com.lowagie.text.pdf.ByteBuffer))
(check-sat)
(pop)
(push)
(assert (not (le x1 com.lowagie.text.pdf.ByteBuffer)))
(check-sat)
(pop)
(push)
(assert (le x4 java.lang.StringBuffer))
(check-sat)
(pop)
(push)
(assert (not (le x4 java.lang.StringBuffer)))
(check-sat)
(pop)
(pop)
(push)
(assert (not (le x6 com.lowagie.text.pdf.ByteBuffer)))
(check-sat)
(push)
(assert (le x3 java.lang.StringBuffer))
(check-sat)
(push)
(assert (le x5 java.lang.StringBuffer))
(check-sat)
(pop)
(push)
(assert (not (le x5 java.lang.StringBuffer)))
(check-sat)
(pop)
(pop)
(push)
(assert (not (le x3 java.lang.StringBuffer)))
(check-sat)
(pop)
(pop)
(push)
(assert (le x7 java.lang.String))
(check-sat)
(pop)
(push)
(assert (not (le x7 java.lang.String)))
(check-sat)
(push)
(assert (le x1 com.lowagie.text.pdf.ByteBuffer))
(check-sat)
(pop)
(push)
(assert (not (le x1 com.lowagie.text.pdf.ByteBuffer)))
(check-sat)
(pop)
(push)
(assert (le x4 com.lowagie.text.pdf.PdfObject))
(check-sat)
(pop)
(push)
(assert (not (le x4 com.lowagie.text.pdf.PdfObject)))
(check-sat)
(pop)
(push)
(assert (le x2 java.lang.StringBuffer))
(check-sat)
(pop)
(push)
(assert (not (le x2 java.lang.StringBuffer)))
(check-sat)
(pop)
(pop)
(pop)
(push)
(assert (not (le x1 com.lowagie.text.pdf.ByteBuffer)))
(check-sat)
(push)
(assert (le x0 com.lowagie.text.pdf.PdfObject))
(check-sat)
(pop)
(push)
(assert (not (le x0 com.lowagie.text.pdf.PdfObject)))
(check-sat)
(pop)
(pop)
(pop)
(push)
(assert (not (le x0 com.lowagie.text.pdf.PdfObject)))
(check-sat)
(push)
(assert (le x2 java.lang.StringBuffer))
(check-sat)
(push)
(assert (le x7 com.lowagie.text.pdf.PdfDictionary))
(check-sat)
(pop)
(push)
(assert (not (le x7 com.lowagie.text.pdf.PdfDictionary)))
(check-sat)
(pop)
(pop)
(push)
(assert (not (le x2 java.lang.StringBuffer)))
(check-sat)
(pop)
(push)
(assert (le x0 com.lowagie.text.pdf.PdfObject))
(check-sat)
(pop)
(push)
(assert (not (le x0 com.lowagie.text.pdf.PdfObject)))
(check-sat)
(push)
(assert (le x0 com.lowagie.text.pdf.PRIndirectReference))
(check-sat)
(pop)
(push)
(assert (not (le x0 com.lowagie.text.pdf.PRIndirectReference)))
(check-sat)
(push)
(assert (le x3 java.lang.String))
(check-sat)
(pop)
(push)
(assert (not (le x3 java.lang.String)))
(check-sat)
(pop)
(pop)
(pop)
(pop)
